c turning on binary mode checking
c parsing input formula with 259840 variables and 1039929 clauses
c finished parsing, read 3398657 bytes from proof file
c detected empty clause; start verification via backward checking
c 3890 of 1039929 clauses in core                            
c 1235 of 132334 lemmas in core using 24625 resolution steps
c 0 RAT lemmas in core; 109 redundant literals in core lemmas
s VERIFIED
c verification time: 1.308 seconds
